letting n =  10
letting blocks =  [[1, 3], [1, 6], [1, 7], [1, 8], [1, 9], [1, 10], [2, 2], [2, 5], [2, 6], [2, 7], [2, 8], [2, 9], [3, 2], [3, 4], [3, 5], [3, 6], [3, 7], [3, 10], [4, 1], [4, 3], [4, 4], [4, 5], [4, 6], [5, 1], [5, 2], [5, 3], [5, 4], [5, 8], [6, 2], [6, 3], [6, 4], [6, 7], [6, 9], [6, 10], [7, 1], [7, 3], [7, 5], [7, 6], [7, 7], [7, 9], [8, 1], [8, 5], [8, 6], [8, 10], [9, 1], [9, 2], [9, 4], [9, 5], [9, 8], [9, 9], [10, 1], [10, 3], [10, 4], [10, 7], [10, 9], [10, 10]]
